
%FILE DATA:	Soccer Computational Problem for MiniZinc Models	%
%AUTHOR:	Jack Wall	%
%CONTACT:  	116397063@umail.ucc.ie			%
%LAST UPDATE:	03/03/2020, 12:29:48						%
%DESCRIPTION: 	70 games played with 20 games left				%


n=10; %number of teams

%Games to play
games=[|2,9|5,10|9,7|10,2|3,9|7,2|1,2|2,5|2,10|9,2|9,4|5,4|1,10|1,5|6,1|3,6|4,6|3,8|8,4|7,6|];

%Initial points
iPoints=[13,7,24,22,19,17,24,23,24,15];

%POSITION CONSTRAINTS
% [|teamID, operator, position|...]
% operators index:
%  1 for =  operator
%  2 for >  operator
%  3 for >= operator
%  4 for <  operator
%  5 for <= operator
positionConstraints=[|9,4,2|3,2,1|8,4,4|5,2,3|];